% Instancia modificada con CONECTIVIDAD GARANTIZADA
% Estructura: 2 plantas -> 5 tanques -> 18 consumidores
% Balance perfecto: suministro = demanda total
% Finished in 2h 7m 19s.

% 1. Configuración de nodos
nP = 2;   % Plantas: nodos 1, 2
nT = 5;   % Tanques: nodos 3, 4, 5, 6, 7
nC1 = 7;  % Consumidores C1: nodos 8, 9, 10, 11, 12, 13, 14
nC2 = 11; % Consumidores C2: nodos 15, 16, 17, 18, 19, 20, 21, 22, 23, 24, 25

% 2. Red con 36 arcos - CONECTIVIDAD MEJORADA
nA = 36;
nD = 3;

% ARCOS REDISEÑADOS para garantizar conectividad:
arc_from = [
  % PLANTAS -> TANQUES (10 conexiones)
  1, 1, 1, 1, 1,  % Planta 1 -> todos los tanques
  2, 2, 2, 2, 2,  % Planta 2 -> todos los tanques
  
  % TANQUES -> CONSUMIDORES C1 (14 conexiones)
  3, 3, 4, 4, 5, 5, 6, 6, 7, 7, 3, 4, 5, 6,
  
  % TANQUES -> CONSUMIDORES C2 (12 conexiones) 
  3, 4, 5, 6, 7, 3, 4, 5, 6, 7, 4, 5
];

arc_to = [
  % PLANTAS -> TANQUES
  3, 4, 5, 6, 7,  % Planta 1 -> T1,T2,T3,T4,T5
  3, 4, 5, 6, 7,  % Planta 2 -> T1,T2,T3,T4,T5
  
  % TANQUES -> CONSUMIDORES C1 
  8, 9, 10, 11, 12, 13, 14, 8, 9, 10, 11, 12, 13, 14,
  
  % TANQUES -> CONSUMIDORES C2
  15, 16, 17, 18, 19, 20, 21, 22, 23, 24, 25, 15
];

% 3. BALANCE PERFECTO - suministro = demanda exacta
supply = [262.62, 262.62, 0.0, 0.0, 0.0, 0.0, 0.0, 0.0, 0.0, 0.0, 0.0, 0.0, 0.0, 0.0, 0.0, 0.0, 0.0, 0.0, 0.0, 0.0, 0.0, 0.0, 0.0, 0.0, 0.0];

% Demandas ajustadas para total = 525.24
demand = [0.0, 0.0, 0.0, 0.0, 0.0, 0.0, 0.0, 
         25.0, 24.0, 26.0, 20.0, 22.0, 19.0, 20.0,  % C1: 156 total
         27.0, 31.0, 29.0, 32.0, 34.0, 25.0, 35.0, 33.0, 30.0, 32.0, 31.24]; % C2: 369.24 total

% 4. Capacidades generosas
max_capacity = [1000, 2000, 4000];

% 5. Costos de instalación - SINTAXIS CORREGIDA para MiniZinc
install_cost = [|
  % Plantas -> Tanques (arcos 1-10)
  15.0, 20.0, 30.0 |  % P1->T1 (arco 1)
  18.0, 24.0, 36.0 |  % P1->T2 (arco 2)
  16.0, 22.0, 32.0 |  % P1->T3 (arco 3)
  17.0, 23.0, 34.0 |  % P1->T4 (arco 4)
  19.0, 25.0, 38.0 |  % P1->T5 (arco 5)
  15.0, 20.0, 30.0 |  % P2->T1 (arco 6)
  18.0, 24.0, 36.0 |  % P2->T2 (arco 7)
  16.0, 22.0, 32.0 |  % P2->T3 (arco 8)
  17.0, 23.0, 34.0 |  % P2->T4 (arco 9)
  19.0, 25.0, 38.0 |  % P2->T5 (arco 10)
  
  % Tanques -> C1 (arcos 11-24)
  8.0, 12.0, 18.0 |   % T1->C1a (arco 11)
  9.0, 13.0, 20.0 |   % T1->C1b (arco 12)
  7.0, 11.0, 16.0 |   % T2->C1c (arco 13)
  8.0, 12.0, 18.0 |   % T2->C1d (arco 14)
  10.0, 14.0, 22.0 |  % T3->C1e (arco 15)
  9.0, 13.0, 20.0 |   % T3->C1f (arco 16)
  8.0, 12.0, 18.0 |   % T4->C1g (arco 17)
  12.0, 16.0, 24.0 |  % T4->C1a (arco 18)
  11.0, 15.0, 23.0 |  % T5->C1b (arco 19)
  10.0, 14.0, 22.0 |  % T5->C1c (arco 20)
  9.0, 13.0, 20.0 |   % T1->C1d (arco 21)
  8.0, 12.0, 18.0 |   % T2->C1e (arco 22)
  10.0, 14.0, 22.0 |  % T3->C1f (arco 23)
  11.0, 15.0, 23.0 |  % T4->C1g (arco 24)
  
  % Tanques -> C2 (arcos 25-36)
  6.0, 10.0, 14.0 |   % T1->C2a (arco 25)
  7.0, 11.0, 16.0 |   % T2->C2b (arco 26)
  8.0, 12.0, 18.0 |   % T3->C2c (arco 27)
  6.0, 10.0, 14.0 |   % T4->C2d (arco 28)
  9.0, 13.0, 20.0 |   % T5->C2e (arco 29)
  7.0, 11.0, 16.0 |   % T1->C2f (arco 30)
  8.0, 12.0, 18.0 |   % T2->C2g (arco 31)
  6.0, 10.0, 14.0 |   % T3->C2h (arco 32)
  7.0, 11.0, 16.0 |   % T4->C2i (arco 33)
  9.0, 13.0, 20.0 |   % T5->C2j (arco 34)
  8.0, 12.0, 18.0 |   % T2->C2k (arco 35)
  10.0, 14.0, 22.0    % T3->C2a (arco 36)
|];

% 6. Costos de transporte
trans_cost = [
  % Plantas -> Tanques (arcos 1-10)
  2.5, 3.0, 2.8, 3.2, 3.5,  % P1 -> T1-T5
  2.5, 3.0, 2.8, 3.2, 3.5,  % P2 -> T1-T5
  
  % Tanques -> C1 (arcos 11-24)
  1.5, 1.8, 1.2, 1.5, 2.0, 1.8, 1.5, 2.2, 2.0, 1.8, 1.6, 1.4, 1.9, 2.1,
  
  % Tanques -> C2 (arcos 25-36)
  1.0, 1.3, 1.6, 1.0, 1.8, 1.4, 1.6, 1.2, 1.4, 1.9, 1.5, 1.7
];

%- COSTOS
%Costo Instalación: $239.00
%Costo Transporte:
%$218448.00
%Penalización:
%$0.00
%COSTO TOTAL:
%$218687.00
%ESTADÍSTICAS DE RED
%Nodos: P=2 T=5 C1=7 C2=11 (Total: 25)
%Arcos totales: 36
%Arcos activos: 24
%Utilización: 66%
%- FLUJOS
%Suministro total: 525.24 1/min
%Demanda total: 495.24 1/min
%Flujo enviado: 495.24 1/min
%Demanda satisfecha: 495.24 1/min
%Demanda no satisfecha: 0.0 1/min
%Eficiencia: 100.0%
%--- DIÁMETROS UTILIZADOS
%D75mm: 24 arcos
%D100mm: 0 arcos
%D150mm: 0 arcos
